12470.0
[5, 5, 5, 5, 5, 5, 5, 5, 19, 19, 19, 7, 7, 7, 7, 7, 7, 12, 12, 12, 12, 13, 13, 12, 3, 9, 9, 9, 9, 9, 9, 9, 9, 15, 18, 18, 18, 18, 18, 18, 18, 18, 18, 18, 5, 5, 7, 12, 13, 15, 15, 4, 7, 18, 5, 11, 3, 3, 1, 6, 18, 2, 15, 13, 0, 13, 2, 5, 6, 5, 17, 18, 6, 3, 3, 15, 3, 6, 6, 2, 14, 19, 13, 15, 15, 3, 1, 6, 15, 1, 2, 2, 17, 17, 2, 17, 1, 6, 1, 16]